18 4
87 10 30 83 30 44 55 73 43 95 28 39 84 44 26 32 95 56
92 28 39 95 99 30 20 76 86 29 30 56 65 38 84 87 87 38
85 12 39 11 61 94 78 71 52 70 73 58 67 77 16 62 62 66
46 82 60 24 35 94 37 51 86 86 68 54 49 66 56 98 88 71
